c --- [ banner ] -------------------------------------------------------------
c 
c CaDiCaL Radically Simplified CDCL SAT Solver
c Copyright (c) 2016-2021 A. Biere, M. Fleury, N. Froleyks
c 
c Version 1.5.2 a5f15211db36c3956764e18194dd5bd63bf3b5e6
c g++ (GCC) 9.3.0 -Wall -Wextra -O3 -DNDEBUG
c Fri Oct 21 01:27:37 EDT 2022 Linux gra-login3 3.10.0-1160.66.1.el7.x86_64 x86_64
c 
c --- [ limit ] --------------------------------------------------------------
c 
c setting conflict limit to 200000 conflicts (due to '200000')
c 
c --- [ parsing input ] ------------------------------------------------------
c 
c reading DIMACS file from '33.cubes808.adj'
c opening file to read '33.cubes808.adj'
c found 'p cnf 6160 1595480' header
c parsed 1595480 clauses in 18.85 seconds process time
c closing file '33.cubes808.adj'
c after reading 1457566807 bytes 1390.0 MB
c 
c --- [ options ] ------------------------------------------------------------
c 
c all options are set to their default value
c 
c --- [ solving ] ------------------------------------------------------------
c 
c time measured in process time since initialization
c 
c  seconds    reductions  redundant   irredundant
c          MB     restarts       trail       variables
c            level   conflicts       glue         remaining
c 
c * 18.85 1357  0 0   0    0    0  0% 0 1595422 2324 38%
c { 19.92 1408  0 0   0    0    0  0% 0 1595422 2324 38%
c i 20.33 1414 1171 0   0    4    3 37% 1 1595422 2319 38%
c i 22.26 1468 467 0   5   42   38 30% 13 1595422 2312 38%
c i 22.39 1471 419 0   7   47   41 30% 13 1595422 2311 38%
c i 22.39 1471 410 0   7   48   41 30% 12 1595422 2310 38%
c i 22.40 1471 401 0   7   49   41 30% 12 1595422 2309 37%
c i 22.40 1471 393 0   8   50   41 30% 12 1595422 2308 37%
c i 22.40 1471 385 0   8   51   41 30% 12 1595422 2307 37%
c i 22.45 1471 335 0   8   60   44 29% 10 1595422 2301 37%
c i 22.49 1471 320 0   8   65   48 28% 9 1595422 2300 37%
c i 22.73 1475 295 0   9   74   56 28% 14 1595422 2299 37%
c i 22.96 1478 279 0  11   81   62 28% 19 1595422 2298 37%
c i 23.03 1478 269 0  12   87   66 27% 20 1595422 2296 37%
c i 24.50 1486 208 0  21  123   97 27% 20 1595422 2295 37%
c i 24.70 1487 203 0  21  127  100 26% 19 1595422 2294 37%
c i 24.84 1487 197 0  21  133  105 26% 19 1595422 2293 37%
c i 24.85 1487 194 0  21  136  106 26% 19 1595422 2291 37%
c i 25.01 1488 192 0  21  141  110 26% 18 1595422 2290 37%
c i 25.19 1488 188 0  21  157  125 27% 19 1595422 2289 37%
c 
c  seconds     reductions  redundant    irredundant
c          MB      restarts       trail        variables
c             level   conflicts       glue          remaining
c 
c i 25.24 1489 185 0  22  161  127 27% 19 1595422 2288 37%
c i 25.27 1489 184 0  22  162  127 27% 19 1595422 2287 37%
c i 25.29 1489 180 0  22  166  130 27% 19 1595422 2286 37%
c i 25.48 1489 172 0  22  175  135 27% 18 1595422 2285 37%
c i 25.49 1489 171 0  22  176  135 27% 18 1595422 2284 37%
c i 25.50 1489 167 0  22  180  138 27% 18 1595422 2283 37%
c i 25.51 1489 167 0  22  181  138 27% 18 1595422 2258 37%
c i 25.78 1489 146 0  22  229  172 26% 15 1595422 2257 37%
c i 25.87 1489 146 0  22  233  172 26% 15 1595422 2254 37%
c i 25.88 1489 145 0  22  235  173 26% 15 1595422 2253 37%
c i 25.94 1489 144 0  22  241  177 26% 16 1595422 2252 37%
c i 26.52 1491 131 0  30  283  215 27% 17 1595422 2251 37%
c i 26.74 1491 133 0  32  296  222 27% 19 1595422 2250 37%
c - 30.92 1412 131 1  34  301  226 27% 19 223020 2250 37%
c i 31.40 1384 120 1  44  352  256 27% 20 223020 2249 37%
c i 31.40 1384 120 1  44  353  256 27% 20 223020 2248 36%
c i 31.40 1384 120 1  45  354  256 27% 20 223020 2247 36%
c i 31.40 1384 119 1  46  358  258 27% 20 223020 2246 36%
c i 31.62 1385 113 1  56  398  290 26% 21 223020 2245 36%
c i 31.68 1385 111 1  60  413  298 26% 21 223020 2244 36%
c 
c  seconds     reductions  redundant   irredundant
c          MB      restarts       trail       variables
c             level   conflicts       glue         remaining
c 
c i 31.71 1385 111 1  61  414  298 26% 21 223020 2243 36%
c i 31.76 1385 110 1  63  422  305 26% 21 223020 2242 36%
c i 31.77 1385 110 1  63  423  305 27% 21 223020 2241 36%
c i 31.80 1385 110 1  64  428  309 27% 22 223020 2240 36%
c i 31.81 1385 109 1  65  429  309 27% 22 223020 2239 36%
c i 31.82 1385 109 1  66  433  312 27% 21 223020 2238 36%
c i 31.82 1385 108 1  67  435  313 27% 21 223020 2237 36%
c i 32.41 1385 103 1  79  489  359 27% 22 223020 2236 36%
c i 32.51 1385 101 1  81  514  381 27% 22 223020 2235 36%
c i 32.61 1385 99 1  83  531  395 27% 22 223020 2234 36%
c i 32.62 1385 99 1  84  532  395 27% 22 223020 2233 36%
c i 32.91 1385 96 1  92  579  427 26% 23 223020 2232 36%
c i 32.92 1385 96 1  92  580  427 26% 23 223020 2231 36%
c i 33.05 1385 94 1  97  620  458 27% 23 223020 2230 36%
c i 33.06 1385 93 1  98  623  460 27% 23 223020 2229 36%
c i 33.06 1385 93 1  98  624  460 27% 23 223020 2228 36%
c i 33.06 1385 93 1  99  625  460 27% 23 223020 2227 36%
c i 33.07 1385 93 1  99  629  463 27% 23 223020 2226 36%
c i 33.07 1385 92 1  99  630  463 27% 23 223020 2225 36%
c i 33.07 1385 92 1  99  631  463 27% 23 223020 2224 36%
c 
c  seconds    reductions  redundant   irredundant
c          MB     restarts       trail       variables
c            level   conflicts       glue         remaining
c 
c i 33.08 1385 92 1  99  634  465 27% 23 223020 2223 36%
c i 33.12 1385 91 1  99  651  481 27% 23 223020 2222 36%
c i 33.16 1385 90 1 101  667  495 27% 23 223020 2221 36%
c i 33.17 1385 89 1 101  677  502 27% 23 223020 2220 36%
c i 33.17 1385 88 1 101  681  503 27% 23 223020 2219 36%
c i 33.17 1385 88 1 101  682  503 27% 23 223020 2218 36%
c i 33.17 1385 88 1 101  683  503 27% 23 223020 2217 36%
c i 33.19 1385 88 1 101  687  506 27% 23 223020 2216 36%
c i 33.22 1385 87 1 101  695  513 27% 23 223020 2215 36%
c i 33.25 1385 86 1 101  708  524 27% 22 223020 2214 36%
c i 33.31 1385 87 1 102  737  542 27% 23 223020 2213 36%
c i 33.31 1385 87 1 103  739  543 27% 23 223020 2212 36%
c i 33.37 1385 86 1 105  750  551 27% 23 223020 2211 36%
c i 33.37 1385 86 1 105  751  551 27% 23 223020 2210 36%
c i 33.38 1385 86 1 106  758  556 27% 23 223020 2209 36%
c i 33.42 1385 85 1 106  768  565 27% 23 223020 2208 36%
c i 33.56 1385 85 1 109  780  575 27% 23 223020 2207 36%
c i 34.02 1385 82 1 117  839  628 27% 23 223020 2206 36%
c i 34.05 1385 80 1 117  853  638 27% 22 223020 2205 36%
c i 34.08 1385 80 1 117  860  643 27% 22 223020 2204 36%
c 
c  seconds    reductions  redundant   irredundant
c          MB     restarts       trail       variables
c            level   conflicts       glue         remaining
c 
c } 34.42 1385 73 1 119 1000  756 27% 22 223020 2204 36%
c [ 34.42 1385  0 1 119 1000  756  0% 0 223020 2204 36%
c O 34.45 1385 18 1 119 1006  759 28% 15 223020 2204 36%
c i 34.68 1385 17 1 119 1059  802 28% 14 223020 2203 36%
c i 34.68 1385 17 1 119 1060  802 28% 14 223020 2202 36%
c i 34.70 1385 17 1 119 1073  809 28% 15 223020 2201 36%
c i 34.70 1385 17 1 119 1074  809 28% 15 223020 2200 36%
c i 34.72 1385 18 1 119 1111  836 29% 16 223020 2199 36%
c - 35.11 1430 18 2 119 1111  756 29% 16 222869 2199 36%
c i 35.23 1430 19 2 119 1145  780 30% 16 222869 2198 36%
c i 35.24 1430 19 2 119 1161  792 30% 16 222869 2197 36%
c i 35.27 1430 18 2 119 1226  839 30% 15 222869 2196 36%
c i 35.28 1430 18 2 119 1244  852 30% 15 222869 2195 36%
c i 35.47 1430 17 2 119 1544 1088 30% 14 222869 2194 36%
c i 35.50 1430 17 2 119 1579 1118 30% 14 222869 2193 36%
c i 35.51 1430 17 2 119 1580 1118 30% 14 222869 2192 36%
c i 35.51 1430 17 2 119 1584 1119 30% 14 222869 2191 36%
c i 35.51 1430 17 2 119 1595 1129 30% 14 222869 2190 36%
c i 35.51 1430 17 2 119 1596 1129 30% 14 222869 2189 36%
c i 35.52 1430 17 2 119 1600 1129 30% 14 222869 2188 36%
c 
c  seconds    reductions  redundant   irredundant
c          MB     restarts       trail       variables
c            level   conflicts       glue         remaining
c 
c i 35.52 1430 17 2 119 1604 1132 30% 14 222869 2187 36%
c i 35.64 1430 17 2 119 1879 1317 31% 14 222869 2186 35%
c i 35.66 1430 17 2 119 1933 1349 31% 14 222869 2185 35%
c - 36.13 1429 17 3 120 2327 1196 31% 14 222827 2185 35%
c ] 36.76 1429 17 3 120 3000 1606 48% 15 222827 2185 35%
c { 36.76 1429 73 3 120 3000 1606 77% 22 222827 2185 35%
c F 36.78 1429 72 3 120 3008 1610 77% 22 222827 2185 35%
c i 36.86 1429 71 3 120 3038 1636 76% 22 222827 2184 35%
c i 37.23 1429 67 3 133 3173 1757 72% 22 222827 2183 35%
c i 37.35 1429 68 3 140 3202 1775 71% 22 222827 2182 35%
c - 39.13 1350 58 4 211 3946 1778 61% 24 222818 2182 35%
c i 39.50 1350 50 4 211 4504 2156 57% 22 222818 2181 35%
c 2 40.17 1350 44 4 211 5001 3255 55% 21 222782 2169 35%
c p 45.74 1350 44 4 211 5001 7060 55% 21 222782 2144 35%
c d 46.03 1350 44 4 211 5001 6835 55% 21 222706 2142 35%
c - 47.02 1352 36 5 213 5968 2217 53% 18 222706 2142 35%
c # 47.11 1352 36 5 213 6009 2244 53% 18 222706 2142 35%
c } 48.25 1352 34 5 258 7002 3004 51% 18 222706 2142 35%
c [ 48.25 1352 17 5 258 7002 3004 48% 15 222706 2142 35%
c - 49.39 1352 21 6 259 8393 2903 48% 18 222706 2142 35%
c 
c  seconds    reductions   redundant   irredundant
c          MB     restarts        trail       variables
c            level    conflicts       glue         remaining
c 
c I 50.64 1352 24 6 260 10012 4027 49% 20 222706 2142 35%
c - 52.31 1352 27 7 261 11223 3571 48% 22 222706 2142 35%
c - 56.44 1352 28 8 263 14457 4052 47% 24 222706 2142 35%
c ] 57.16 1352 28 8 263 15003 4398 47% 24 222706 2142 35%
c { 57.16 1352 34 8 263 15003 4398 51% 18 222706 2142 35%
c 2 57.21 1352 34 8 264 15003 5216 51% 18 222706 2142 35%
c p 58.64 1352 34 8 264 15003 8839 51% 18 222706 2141 35%
c B 58.77 1352 34 8 266 15019 8854 51% 18 222706 2141 35%
c } 62.07 1352 34 8 430 16535 9976 49% 18 222706 2141 35%
c 1 62.07 1352 34 8 430 16535 9976 49% 18 222706 2141 35%
c 
c --- [ writing output ] -----------------------------------------------------
c 
c writing simplified CNF to DIMACS file 'simp/33.cubes808.adj.simp1'
c * 62.07 1352 34 8 430 16535 9976 49% 18 222706 2141 35%
c opening file to write 'simp/33.cubes808.adj.simp1'
c writing 'p cnf 6160 222703' header
c closing file 'simp/33.cubes808.adj.simp1'
c after writing 86126446 bytes 82.1 MB
c wrote 222703 clauses in 0.63 seconds process time
c 
c --- [ writing extension ] --------------------------------------------------
c 
c writing extension stack to 'simp/33.cubes808.adj.ext1'
c opening file to write 'simp/33.cubes808.adj.ext1'
c closing file 'simp/33.cubes808.adj.ext1'
c after writing 13402 bytes 0.0 MB
c wrote 889 witnesses in 0.00 seconds process time
c 
c --- [ result ] -------------------------------------------------------------
c 
s SATISFIABLE
c 
c --- [ run-time profiling ] -------------------------------------------------
c 
c process time taken by individual solving procedures
c (percentage relative to process time for solving)
c 
c        35.50   82.13% search
c        23.16   53.58% unstable
c        18.85   43.60% parse
c        11.26   26.06% stable
c         7.72   17.87% simplify
c         7.00   16.19% probe
c         1.08    2.49% lucky
c         0.07    0.16% ternary
c   =================================
c        43.22   68.94% solve
c 
c last line shows process time for solving
c (percentage relative to total process time)
c 
c --- [ statistics ] ---------------------------------------------------------
c 
c chronological:              3404        20.59 %  of conflicts
c conflicts:                 16535       382.57    per second
c decisions:                 53995      1249.27    per second
c fixed:                       861        13.98 %  of all variables
c learned:                   16172        97.80 %  per conflict
c learned_lits:            2823147       100.00 %  learned literals
c minimized:                     0         0.00 %  learned literals
c shrunken:                1811124        64.15 %  learned literals
c minishrunken:             178552         6.32 %  learned literals
c propagations:            2399493         0.06 M  per second
c reduced:                    6136        37.11 %  per conflict
c rephased:                      5      3307.00    interval
c restarts:                    430        38.45    interval
c stabilizing:                   2        60.48 %  of conflicts
c substituted:                  14         0.23 %  of all variables
c subsumed:                   4468         0.13 %  of all clauses
c ternary:                    1601         0.56 %  of resolved
c weakened:                     28         2.00    average size
c 
c seconds are measured in process time for solving
c 
c --- [ resources ] ----------------------------------------------------------
c 
c total process time since initialization:        62.70    seconds
c total real time since initialization:           63.35    seconds
c maximum resident set size of process:         1509.33    MB
c 
c --- [ shutting down ] ------------------------------------------------------
c 
c exit 10
WARNING! DIMACS header mismatch: wrong number of variables.
============================[ Problem Statistics ]=============================
|                                                                             |
|  Number of variables:          6120                                         |
|  Number of clauses:          222703                                         |
|  Parse time:                   1.16 s                                       |
|  Simplification time:          0.02 s                                       |
|                                                                             |
============================[ Search Statistics ]====================================================
| Conflicts |          ORIGINAL         |          LEARNT          | Num Sols |      SUBGRAPHS      |
|           |    Vars  Clauses Literals |    Limit  Clauses Lit/Cl |          | Canonical Noncanon. |
=====================================================================================================
|       151 |    6025   222754 19003505 |     2000      151     80 |        0 |        42        51 |
|       789 |    6025   223242 19012306 |     2000      789     30 |        0 |       226       539 |
|      1810 |    6025   224038 19025298 |     2000     1810     22 |        0 |       413      1335 |
|      2219 |    6025   224110 19026823 |     3600     1219     23 |        0 |       467      1407 |
|      3801 |    6025   225186 19045811 |     3600     2801     26 |        0 |       687      2483 |
|      5380 |    6025   226006 19060624 |     5000     2580     24 |        0 |       915      3303 |
|      7747 |    6025   227234 19084441 |     5000     4947     31 |        0 |      1269      4531 |
|      9873 |    6025   227652 19091442 |     6306     4579     41 |        0 |      1393      4949 |
|     16719 |    6025   231936 19155156 |     8780     4499     18 |        0 |      2355      9233 |
|     23768 |    6025   235141 19200458 |     9996     7164     38 |        0 |      2915     12438 |
|     34998 |    6025   240605 19283274 |    12407     7805     28 |        0 |      3870     17902 |
|     55466 |    6025   252424 19444415 |    16009     7875     12 |        0 |      5138     29721 |
|     78702 |    6025   262686 19597762 |    18413    14515     36 |        0 |      6932     39983 |
|    123071 |    6025   287594 19922576 |    23207    18478     16 |        0 |      9234     64891 |
=====================================================================================================
Number of solutions   : 0
Canonical subgraphs   : 11373          (103 /sec)
          order  3    : 1              (166667 /sec)
          order  4    : 1              (333333 /sec)
          order  5    : 1              (200000 /sec)
          order  6    : 1              (52632 /sec)
          order  7    : 2              (10526 /sec)
          order  8    : 6              (2616 /sec)
          order  9    : 16             (615 /sec)
          order 10    : 79             (230 /sec)
          order 11    : 490            (172 /sec)
          order 12    : 3695           (135 /sec)
          order 13    : 1807           (147 /sec)
          order 14    : 2593           (108 /sec)
          order 15    : 1624           (74 /sec)
          order 16    : 480            (47 /sec)
          order 17    : 350            (45 /sec)
          order 18    : 140            (51 /sec)
          order 19    : 58             (51 /sec)
          order 20    : 15             (73 /sec)
          order 21    : 14             (70 /sec)
          order 22    : 0              (-nan /sec)
Noncanonical subgraphs: 80257          (841 /sec)
          order  3    : 0              (-nan /sec)
          order  4    : 0              (-nan /sec)
          order  5    : 0              (-nan /sec)
          order  6    : 0              (-nan /sec)
          order  7    : 0              (-nan /sec)
          order  8    : 0              (-nan /sec)
          order  9    : 0              (-nan /sec)
          order 10    : 0              (-nan /sec)
          order 11    : 0              (-nan /sec)
          order 12    : 0              (-nan /sec)
          order 13    : 64834          (857 /sec)
          order 14    : 9294           (1155 /sec)
          order 15    : 4557           (736 /sec)
          order 16    : 1530           (292 /sec)
          order 17    : 18             (518 /sec)
          order 18    : 6              (635 /sec)
          order 19    : 0              (-nan /sec)
          order 20    : 0              (-nan /sec)
          order 21    : 0              (-nan /sec)
Canonicity checking   : 110.89 s
Noncanonicity checking: 95.4802 s
Total canonicity time : 206.371 s
database reductions   : 20
restarts              : 435
conflicts             : 159652         (558 /sec)
decisions             : 303361         (0.00 % random) (1061 /sec)
propagations          : 15922281       (55676 /sec)
conflict literals     : 7498636        (51.31 % deleted)
actual reward         : 0.083288
Memory used           : 234.00 MB
CPU time              : 285.983 s

UNSATISFIABLE
